%chk=3-NO2-C6H3-N2-v2-TS.chk
%mem=500MW
%nproc=7
# rb3lyp/aug-cc-pVDZ opt=ts geom=connectivity freq=noraman

3-NO2-C6H3-N2-v2

1 1
C          -1.95122         0.11117        -1.13880
C          -0.65803        -0.24327        -0.75590
C          -0.13951         0.58216         0.24157
C          -0.61339         1.64422         0.91463
C          -1.90843         1.92793         0.46891
C          -2.58455         1.20731        -0.52184
H          -2.46839        -0.45674        -1.91084
N           1.33678         0.19404         0.69272
N           2.32858         0.15811         1.19198
H          -3.59335         1.49496        -0.81123
N          -2.64915         3.08710         1.08389
O          -3.78707         3.31266         0.66529
O          -2.08853         3.73088         1.95526
H          -0.11865        -1.08094        -1.19783


nprocshared=7
