%chk=4-Br-C6H3-TS.chk
%mem=500MW
%nproc=7
# rb3lyp/aug-cc-pVDZ opt=ts geom=connectivity freq=noraman

4-Br-C6H3

0 1
C          -1.37794        -1.51241        -1.07175
C           0.01122        -1.23027        -1.10144
C           0.25186         0.06697        -0.88221
C          -0.55395         1.17709        -0.63605
C          -1.90887         0.86111        -0.61443
C          -2.29159        -0.48053        -0.83342
H          -1.75413        -2.52488        -1.23195
H          -0.18125         2.18933        -0.47568
H          -2.65758         1.62867        -0.43315
N           1.83515         0.41713        -0.91092
N           2.94009         0.31976        -0.99236
Br         -4.17561        -0.88249        -0.79665


nprocshared=7
