%mem=400MW
%nproc=7
#p Temperature=298.15 opt=(maxcycles=1024) SCF=(maxcycles=1024) freq UB3LYP/aug-cc-pVDZ

3-NO2-Ph-N2+-UB3LYP-aug-cc-pVDZ-Triplet

1 3
C          -1.79430        -0.38840        -6.13980
C          -0.77380         0.54220        -5.94230
C          -1.03010         1.58350        -5.03420
C          -2.23340         1.74810        -4.33720
C          -3.20630         0.78650        -4.56970
C          -3.00880        -0.27740        -5.45640
H          -1.63480        -1.21050        -6.83550
H           0.18590         0.51890        -6.47100
H          -2.40750         2.56810        -3.64540
N          -0.01730         2.51920        -4.81380
N           0.93750         3.08820        -4.69600
H          -3.80950        -0.99980        -5.60000
N          -4.49750         0.90620        -3.85070
O          -5.34240         0.04880        -4.07260
O          -4.62620         1.85560        -3.08630


nprocshared=7
