%chk=Ph-N2-OTf-N2-Ph.chk
%nprocs=7
%mem=200MW
# opt freq rb3lyp/6-31G(d,p)

2-NO2-Ph-N2-OTf-RB3LYP-6-31G_dp

0 1
C          -1.37590        -0.64980        -6.21080
C          -0.63510         0.53120        -6.29080
C          -0.96650         1.56870        -5.41130
C          -2.00310         1.44990        -4.46440
C          -2.71950         0.26610        -4.39680
C          -2.40260        -0.78200        -5.27390
H          -1.12410        -1.47360        -6.87650
H           0.20980         0.67300        -6.96900
N          -0.18980         2.71940        -5.51390
N           0.53730         3.52030        -5.75950
S           2.81640         1.12650        -5.92730
C           3.19060        -0.65980        -6.45120
O           2.05560         1.66720        -7.12730
O           4.14700         1.72900        -5.67150
O           1.90580         0.94980        -4.73490
F           2.03240        -1.31230        -6.75200
F           3.97320        -0.69160        -7.53970
F           3.79640        -1.33490        -5.46290
H          -2.96740        -1.71170        -5.21290
H          -3.51450         0.17710        -3.66040
N          -2.34160         2.55960        -3.55490
O          -1.72950         3.61310        -3.71990
O          -3.20390         2.36110        -2.71490


nprocshared=7
