%chk=Ph-N2-OTf-N2-Ph.chk
%nprocs=7
%mem=200MW
# opt freq rb3lyp/6-31G(d,p)

3-NO2-Ph-N2-OTf-RB3LYP-6-31G_dp

0 1
C          -1.79430        -0.38840        -6.13980
C          -0.77380         0.54220        -5.94230
C          -1.03010         1.58350        -5.03420
C          -2.23340         1.74810        -4.33720
C          -3.20630         0.78650        -4.56970
C          -3.00880        -0.27740        -5.45640
H          -1.63480        -1.21050        -6.83550
H           0.18590         0.51890        -6.47100
H          -2.40750         2.56810        -3.64540
N          -0.01730         2.51920        -4.81380
N           0.93750         3.08820        -4.69600
S           2.97160         1.27970        -6.33430
C           3.36540        -0.57680        -6.39940
O           1.77270         1.41240        -7.24530
O           4.21650         1.95700        -6.76340
O           2.57980         1.46070        -4.87080
F           2.26700        -1.29550        -6.05490
F           3.72550        -0.93650        -7.64070
F           4.35470        -0.88980        -5.55220
H          -3.80950        -0.99980        -5.60000
N          -4.49750         0.90620        -3.85070
O          -5.34240         0.04880        -4.07260
O          -4.62620         1.85560        -3.08630


nprocshared=7
