%nprocs=7
%mem=200MW
# opt freq rb3lyp/6-31G(d,p)

4-CH3O-Ph-N2+-RB3LYP-6-31G_dp

1 1
C          -2.21860         0.47150        -6.21880
C          -1.12290         1.27340        -5.94620
C          -1.10390         1.96890        -4.72380
C          -2.14070         1.88230        -3.76610
C          -3.21990         1.07780        -4.05710
C          -3.26730         0.36270        -5.28090
H          -2.23770        -0.08130        -7.15350
H          -0.26730         1.37410        -6.61860
H          -2.07900         2.42950        -2.82730
H          -4.04400         0.96840        -3.35510
N          -0.02050         2.75920        -4.43230
N           0.83060         3.42950        -4.17600
O          -4.35680        -0.39660        -5.45220
C          -4.48650        -1.18520        -6.64810
H          -5.43780        -1.71200        -6.54180
H          -3.66360        -1.90820        -6.72420
H          -4.51380        -0.53930        -7.53580


nprocshared=7
