%chk=Ph-N2-OTf-N2-Ph.chk
%nprocs=7
%mem=200MW
# opt freq rb3lyp/6-31G(d,p)

4-HOOC-Ph-N2-OTf-RB3LYP-6-31G_dp

0 1
C          -4.53700         0.10130        -0.66120
C          -4.64840        -0.99950         0.20830
C          -5.84370        -1.73060         0.36200
C          -6.94540        -1.34790        -0.38650
C          -6.85440        -0.25640        -1.26400
C          -5.66060         0.46090        -1.39650
H          -3.59240         0.64430        -0.71350
H          -5.89030        -2.56820         1.04490
H          -7.87460        -1.89370        -0.28940
H          -5.60300         1.30590        -2.07030
N          -3.54240        -1.37930         0.93700
N          -2.58150        -1.64260         1.47140
S           0.31080         1.00520        -0.26440
O           0.18370        -0.42720         0.53210
O           1.19660         0.91040        -1.58550
O          -1.07010         1.79160        -0.35420
C           1.39120         1.99150         0.99590
F           2.55170         1.26960         1.13220
F           0.74150         2.05640         2.17760
F           1.66020         3.21950         0.50990
C          -8.08860         0.15750        -2.08680
O          -9.21780        -0.32970        -2.12030
O          -7.84180         1.22940        -2.88140
H          -8.63480         1.46900        -3.38820


nprocshared=7
