%mem=300MW
%nproc=7
#p Temperature=298.15 opt freq rb3lyp/6-31G(d,p)

4-NO2-Ph-N2-OTs-RB3LYP-6-31G_dp

0  1
  C   -5.407474   -1.132331   0.246987
  C   -4.092666   -1.242287   0.377185
  C   -3.307823   -0.169095   -0.007341
  C   -3.855537   1.100518   -0.291692
  C   -5.365550   1.297220   -0.284220
  C   -5.942812   -0.067204   -0.128122
  H   -6.036062   -2.083474   0.461427
  H   -3.413583   -2.176873   0.594037
  H   -3.296691   1.946495   -0.385497
  H   -5.794203   2.187869   -0.552692
  N   -7.477474   0.092447   -0.150790
  O   -7.973721   1.242432   -0.524254
  O   -8.082416   -0.870219   0.161240
  N   -1.986927   -0.105480   0.066617
  N   -0.789696   -0.050690   0.193561
  C   4.974539   -1.094392   -0.555818
  C   6.286576   -1.008255   -0.575871
  C   6.991013   0.029802   -0.112942
  C   6.266487   1.115336   0.344125
  C   4.927837   1.186095   0.333924
  C   4.149165   0.060055   0.011661
  H   4.249427   -1.909880   -0.738902
  H   6.823288   -2.028469   -0.747442
  H   6.803068   1.958189   0.574093
  H   4.410088   2.044940   0.621766
  S   2.337227   0.021702   -0.001810
  O   2.327682   -0.428298   1.505390
  O   1.991865   -1.116230   -0.879834
  O   1.989421   1.427815   -0.116462
  C   8.462517   0.176270   -0.271344
  H   8.908241   -0.775909   0.450813
  H   8.864121   -0.101310   -1.300662
  H   9.016713   1.009498   0.188045

nprocshared=7
