%nprocs=7
%mem=200MW
# opt freq rb3lyp/6-31G(d,p)

4-NO2-Ph-N2+-RB3LYP-6-31G_dp

1 1
C          -2.02450        -0.32590        -6.12060
C          -0.97290         0.56240        -5.89630
C          -1.16560         1.53300        -4.90270
C          -2.33570         1.67010        -4.13850
C          -3.36540         0.76760        -4.37360
C          -3.18680        -0.20840        -5.35900
H          -1.94440        -1.10420        -6.87550
H          -0.03470         0.55150        -6.46120
H          -2.42510         2.45010        -3.38510
H          -4.29610         0.80890        -3.81430
N          -4.30070        -1.16630        -5.60660
O          -5.30750        -1.04090        -4.91960
O          -4.13100        -2.00830        -6.47770
N          -0.12120         2.42900        -4.65970
N           0.84270         2.97820        -4.52420


nprocshared=7
