%mem=300MW
%nproc=7
#p Temperature=298.15 opt freq rb3lyp/6-31G(d,p)

4-NO2-Ph-N2-OTf-RB3LYP-6-31G_dp

0  1
C          -2.29251        -0.79823        -0.28342
C          -1.11091        -0.06612        -0.20884
C          -1.21858         1.29397         0.11376
C          -2.43998         1.94437         0.36429
C          -3.60364         1.19459         0.28997
C          -3.50329        -0.15976        -0.03210
H          -2.28258        -1.85157        -0.53325
H          -0.13014        -0.48181        -0.41787
H          -2.46368         2.99969         0.60993
H          -4.57627         1.63253         0.47261
N          -4.75539        -0.95494        -0.11113
O          -5.80623        -0.36381         0.11806
O          -4.64672        -2.14144        -0.39850
N          -0.06898         2.07144         0.21447
N           0.86177         2.66572         0.31676
S           2.81960         0.35178        -0.53142
C           2.86219        -1.21140         0.47997
O           1.54826         0.21310        -1.29703
O           4.06017         0.34744        -1.30413
O           2.71196         1.41884         0.52433
F           1.70010        -1.33636         1.16773
F           2.98696        -2.28296        -0.31020
F           3.86607        -1.20071         1.35880


nprocshared=7
