%nprocs=7
%mem=200MW
# opt freq rb3lyp/6-31G(d,p)

Ph-N2-OTf-RB3LYP-6-31G_dp

0  1
  C   4.579626   1.443104   -0.132852
  C   3.488160   1.152829   -0.555320
  C   3.052191   -0.385735   -0.345734
  C   3.532254   -1.163726   0.825581
  C   4.877855   -0.524452   1.207796
  C   5.447260   0.639766   0.365851
  H   5.165085   2.311485   -0.736640
  H   3.086575   1.673256   -1.372370
  H   3.165480   -1.894282   0.841545
  H   5.478108   -1.258750   1.864031
  N   1.788773   -0.475942   -0.576622
  N   0.682192   -0.606371   -0.884636
  S   -1.859193   -0.460375   -0.275376
  C   -3.404049   0.504107   0.334106
  O   -1.670770   0.224274   -1.730690
  O   -2.073074   -1.704054   -0.447293
  O   -0.613088   0.224085   0.655727
  F   -3.185202   1.659666   0.820693
  F   -4.428983   0.114891   -0.172202
  F   -3.434282   -0.185677   1.796869
  H   6.476286   0.599641   1.017108

nprocshared=7
