%chk=Ph-N2-OTf-N2-Ph.chk
%nprocs=7
%mem=200MW
# opt freq rb3lyp/6-31G(d,p)

x2-2-HOOC-4-Br-Ph-N2-OTf-v2-RB3LYP-6-311++G_dp

1 1
C           3.92723        -0.49677         0.21391
C           3.71228         0.89341         0.23317
C           4.75227         1.79571        -0.09312
C           5.98665         1.27721        -0.44317
C           6.20784        -0.10143        -0.47168
C           5.17852        -0.98130        -0.14042
H           3.10743        -1.16222         0.49915
H           6.77533         1.97387        -0.69412
H           5.35412        -2.04802        -0.15589
N           2.45739         1.32716         0.58157
N           1.39146         1.58025         0.84758
S           0.16425        -1.65385         0.69600
O          -0.16173        -0.07684         0.46518
O          -0.32897        -2.59482        -0.50873
O           1.62850        -1.92349         1.26715
C          -1.03333        -2.08384         2.14671
F          -2.30032        -1.90102         1.64599
F          -0.81102        -1.23172         3.16986
F          -0.86140        -3.36603         2.52333
H          -2.06706         0.13879         0.07670
C          -3.12637         0.23074        -0.16447
C          -3.82042        -0.83387        -0.76394
C          -3.81594         1.40324         0.11537
C          -5.19334        -0.72122        -1.07673
C          -5.17088         1.52181        -0.18894
H          -3.29583         2.23072         0.57725
C          -5.85422         0.45867        -0.78326
H          -6.90391         0.54060        -1.02175
N          -3.12979        -1.98718        -1.05313
N          -2.43169        -2.85807        -1.22377
C          -5.90158        -1.86694        -1.70973
O          -5.36822        -2.93614        -1.98761
O          -7.21163        -1.56798        -1.93585
H          -7.67731        -2.34182        -2.35708
C           4.63895         3.28202        -0.09814
O           5.55570         4.03949        -0.38061
O           3.37781         3.68708         0.25475
H           3.32919         4.68247         0.25238
Br         -6.10058         3.13465         0.20552
Br          7.91874        -0.76842        -0.96206


nprocshared=7
