%chk=Ph-N2-OTf-N2-Ph.chk
%nprocs=7
%mem=200MW
# opt freq rb3lyp/6-31G(d,p)

x2-2-HOOC-Ph-N2-OTf-v2-RB3LYP-6-311++G_dp

1 1
C           4.01330        -1.18452        -0.60003
C           4.19709         0.14787        -0.19449
C           5.41254         0.83352        -0.42532
C           6.43194         0.15346        -1.07723
C           6.26246        -1.17273        -1.49049
C           5.05816        -1.83677        -1.25061
H           3.06392        -1.67734        -0.37597
H           7.35696         0.68872        -1.25032
H           7.07285        -1.68292        -1.99581
H           4.92361        -2.86414        -1.56317
N           3.13523         0.75490         0.44257
N           2.20986         1.17548         0.92690
S           0.11139        -1.45012         0.14331
O           0.21012         0.14866         0.42604
O          -0.70571        -1.81729        -1.19065
O           1.48319        -2.22574         0.38315
C          -1.04482        -2.02939         1.57477
F          -2.25951        -1.43213         1.33831
F          -0.53730        -1.60191         2.75053
F          -1.17063        -3.37074         1.54844
H          -1.61317         0.91262         0.42526
C          -2.62594         1.31277         0.39567
C          -3.61682         0.69338        -0.38137
C          -2.97073         2.44896         1.12535
C          -4.93621         1.19332        -0.43418
C          -4.27223         2.95226         1.08400
H          -2.21487         2.93498         1.72843
C          -5.25159         2.32415         0.30585
H          -4.52984         3.83399         1.65725
H          -6.26385         2.69968         0.26321
N          -3.26693        -0.42349        -1.11463
N          -2.82916        -1.31652        -1.64676
C          -5.94987         0.50011        -1.27289
O          -5.72214        -0.50246        -1.94333
O          -7.15907         1.12467        -1.19703
H          -7.82925         0.65035        -1.76187
C           5.69953         2.23971        -0.02804
O           6.76114         2.80934        -0.23584
O           4.62354         2.81410         0.60029
H           4.84609         3.74979         0.86099


nprocshared=7
