%chk=Ph-N2-OTf-N2-Ph.chk
%nprocs=7
%mem=200MW
# opt freq rb3lyp/6-31G(d,p)

x2-2-HOOC-Ph-N2-OTf-v1-RB3LYP-6-311++G_dp

1 1
C           3.92152        -1.16361        -0.63238
C           4.09601         0.12800        -0.11702
C           5.27636         0.86861        -0.33958
C           6.28718         0.29324        -1.09505
C           6.12846        -0.99705        -1.61869
C           4.95526        -1.71714        -1.38795
H           2.99750        -1.70905        -0.42241
H           7.18910         0.86342        -1.26642
H           6.92565        -1.43606        -2.20531
H           4.83479        -2.71494        -1.78961
N           3.06239         0.65627         0.63614
N           2.10874         0.92492         1.17198
S           0.07890        -1.63374         0.00185
O           0.29426        -0.01912         0.15885
O          -0.84721        -2.02776        -1.23618
O           1.42127        -2.46867         0.20914
C          -1.00429        -1.99026         1.55867
F          -2.12209        -1.20273         1.41996
F          -0.31759        -1.62983         2.66489
F          -1.35446        -3.29157         1.59549
H          -2.61519        -1.34427        -1.15374
C          -3.57949        -0.83897        -1.09119
C          -3.64980         0.46918        -0.58899
C          -4.75958        -1.45579        -1.50231
C          -4.87795         1.16152        -0.48982
C          -5.97991        -0.78485        -1.40749
H          -4.71577        -2.46337        -1.89501
C          -6.03698         0.51999        -0.90085
H          -6.89187        -1.27348        -1.72686
H          -6.97418         1.05182        -0.82033
N          -2.47213         1.07881        -0.20668
N          -1.45243         1.46859         0.07365
C          -4.89743         2.54541         0.05036
O          -3.89887         3.15176         0.42907
O          -6.16360         3.04888         0.06924
H          -6.16210         3.97596         0.43466
C           5.39228         2.23324         0.23185
O           4.50769         2.77805         0.88803
O           6.59668         2.79539        -0.06531
H           6.65934         3.70941         0.32679


nprocshared=7
