%mem=300MW
%nproc=7
#p Temperature=298.15 opt freq rb3lyp/6-31G(d,p)

x2-4-CH3O-Ph-N2-OTf-v2-RB3LYP-6-31G_dp

1  1
C           4.10617         0.20202        -0.06643
C           3.75821         1.53794         0.24150
C           4.70725         2.59371         0.26435
C           6.01420         2.28960        -0.02995
C           6.39367         0.95206        -0.34541
C           5.42891        -0.08027        -0.35937
H           3.32691        -0.56085        -0.05408
H           4.40076         3.60857         0.50765
H           6.78191         3.05479        -0.02767
H           5.70849        -1.10234        -0.59551
N           2.45731         1.84120         0.52747
N           1.39933         2.13475         0.75823
S           0.21948        -1.23939        -0.05279
O          -0.24442         0.17358         0.10187
O          -0.29345        -1.91761        -1.26115
O           1.65781        -1.42572         0.23953
C          -0.65232        -2.10554         1.34510
F          -1.99246        -1.99020         1.15132
F          -0.35407        -1.54378         2.51921
F          -0.34946        -3.40097         1.38894
H          -2.26390         0.47294        -0.10167
C          -3.33782         0.53286        -0.28116
C          -4.00329        -0.49461        -0.99692
C          -4.09892         1.58397         0.17686
C          -5.39195        -0.47302        -1.24926
C          -5.49421         1.63165        -0.05979
H          -3.64606         2.39738         0.73394
C          -6.13412         0.59162        -0.77908
H          -5.86193        -1.28088        -1.80134
H          -7.19965         0.61749        -0.96564
N          -3.28797        -1.55646        -1.47132
N          -2.71813        -2.43439        -1.86919
O          -6.12031         2.69680         0.43642
O           7.68625         0.78015        -0.61135
C           8.19646        -0.53152        -0.94065
H           7.72764        -0.90906        -1.85615
H           9.26386        -0.39158        -1.10432
H           8.03553        -1.22735        -0.10860
C          -7.54136         2.85051         0.26595
H          -8.07856         2.02189         0.73813
H          -7.79029         3.78505         0.76724
H          -7.79866         2.91969        -0.79593


nprocshared=7
