%chk=Ph-N2-OTf-N2-Ph.chk
%nprocs=7
%mem=200MW
# opt freq rb3lyp/6-31G(d,p)

x2-4-NO2-Ph-N2-BF4-v2-RB3LYP-6-311++G_dp

1 1
C          -3.80314        -0.26914        -0.34850
C          -3.78638         1.02514         0.20160
C          -4.96495         1.73530         0.51826
C          -6.18226         1.12264         0.27729
C          -6.19721        -0.16006        -0.26590
C          -5.03826        -0.85802        -0.58028
H          -2.86240        -0.75051        -0.57347
H          -4.91548         2.73019         0.93929
H          -7.12227         1.60707         0.49698
H          -5.12431        -1.84934        -1.00065
N          -2.57936         1.64968         0.45434
N          -1.63453         2.20722         0.69073
H           2.30818         1.10880         0.28936
C           3.34806         0.86335         0.12189
C           3.83352        -0.41967         0.45066
C           4.24635         1.77854        -0.41524
C           5.16808        -0.79507         0.24598
C           5.57913         1.42552        -0.63641
H           3.90110         2.77096        -0.67159
C           6.01400         0.14582        -0.30352
H           5.55570        -1.77305         0.49169
H           6.29650         2.11434        -1.06015
N           2.98566        -1.33907         1.03059
N           2.27779        -2.05704         1.52172
N          -7.50581        -0.80186        -0.51645
O          -7.47294        -1.97824        -1.01278
O          -8.53914        -0.11442        -0.21024
N           7.41983        -0.23038        -0.53455
O           8.16865         0.66899        -1.04381
O           7.74976        -1.42069        -0.20096
F          -1.07046        -0.34361        -0.54797
F           1.23665        -0.67215        -0.67715
F           0.11785        -1.21909         1.25357
F           0.36978         1.00451         0.63205
B           0.15625        -0.33931         0.15334


nprocshared=7
