%mem=300MW
%nproc=7
#p Temperature=298.15 opt freq rb3lyp/6-31G(d,p)

x2-4-NO2-Ph-N2-OTf-v2-RB3LYP-6-31G_dp

1  1
C          -4.02152        -0.43364        -0.49783
C          -4.01286        -0.54960         0.90043
C          -5.14248        -0.88209         1.67454
C          -6.33462        -1.10869         1.00506
C          -6.35085        -0.99913        -0.38638
C          -5.23022        -0.66918        -1.14396
H          -3.11545        -0.14655        -1.01998
H          -5.07760        -0.95729         2.75399
H          -7.24367        -1.36652         1.53400
H          -5.31471        -0.59636        -2.22115
N          -2.82930        -0.34906         1.60339
N          -1.94881        -0.24280         2.27890
S          -0.04057         0.91605        -0.14489
O           0.25632         0.03486         1.02532
O           0.92776         0.76122        -1.25376
O          -1.47477         0.93862        -0.51260
C           0.29244         2.63250         0.48965
F           1.61336         2.74928         0.75554
F          -0.38925         2.85954         1.61531
F          -0.03680         3.54777        -0.41909
H           2.29391        -0.42782         0.51793
C           3.33628        -0.69952         0.36236
C           4.17391         0.05143        -0.48395
C           3.90751        -1.80350         0.98773
C           5.52490        -0.24268        -0.72850
C           5.24688        -2.13911         0.77322
H           3.29745        -2.40770         1.64940
C           6.02707        -1.35466        -0.07880
H           6.15411         0.34920        -1.38254
H           5.70256        -2.99730         1.25386
N           3.65166         1.16642        -1.11728
N           3.21057         2.06627        -1.61810
N          -7.63757        -1.24769        -1.09493
O          -7.62166        -1.15207        -2.31526
O          -8.60414        -1.52845        -0.39683
N           7.44987        -1.71331        -0.30327
O           7.86625        -2.70252         0.28407
O           8.08690        -0.98757        -1.05790


nprocshared=7
