%chk=Ph-N2-OTf-N2-Ph.chk
%nprocs=7
%mem=200MW
# opt freq rb3lyp/6-31G(d,p)

x2-4-NO2-Ph-N2-OTs-v1-RB3LYP-6-311++G_dp

1 1
C          -3.48885         0.40967        -0.22646
C          -3.35900         0.08309         1.13501
C          -4.38966        -0.53758         1.87208
C          -5.56939        -0.84496         1.21662
C          -5.69442        -0.52704        -0.13418
C          -4.68385         0.09183        -0.85866
H          -2.65859         0.91742        -0.71285
H          -4.25798        -0.76920         2.92012
H          -6.39819        -1.32242         1.71807
H          -4.85164         0.31636        -1.90186
N          -2.17725         0.36957         1.79306
N          -1.20678         0.56699         2.33037
S           0.42551         1.45490        -0.46275
O           0.69480         0.57998         0.96881
O           0.92587         0.54147        -1.66995
O          -1.10585         1.90667        -0.38925
H           1.67607        -1.09727        -0.69198
C           2.27612        -1.87834        -0.23478
C           3.02876        -1.62884         0.92673
C           2.36656        -3.13969        -0.81056
C           3.86652        -2.59918         1.49842
C           3.17612        -4.10528        -0.22382
H           1.82433        -3.39232        -1.70985
C           3.92903        -3.85767         0.91920
H           4.44665        -2.36150         2.37935
H           4.54733        -4.64768         1.31817
N           2.99060        -0.37131         1.53195
N           2.47580         0.64569         1.72246
N           3.24990        -5.44273        -0.84313
O           2.53970        -5.62648        -1.89094
O           4.01393        -6.29476        -0.27166
N          -6.96084        -0.86105        -0.81992
O          -7.03403        -0.55104        -2.05702
O          -7.85792        -1.42869        -0.10702
C           1.44195         2.96419        -0.45350
C           2.63654         2.93601        -1.15430
C           0.98992         4.08726         0.22228
C           3.42935         4.08262        -1.15304
H           2.90933         2.04740        -1.70988
C           1.79184         5.22532         0.21614
H           0.02479         4.07538         0.71268
C           3.02199         5.23627        -0.46532
H           4.36496         4.08788        -1.69967
H           1.45965         6.11745         0.73435
C           3.87123         6.49128        -0.48302
H           3.43551         7.23286        -1.16420
H           3.92538         6.94113         0.51370
H           4.88766         6.27504        -0.82240


nprocshared=7
