%chk=Ph-N2-OTf-N2-Ph.chk
%nprocs=7
%mem=200MW
# opt freq rb3lyp/6-31G(d,p)

x2-4-Br-Ph-N2-OTf-v1-RB3LYP-6-311++G_dp

1 1
C           4.04235        -0.08400         0.13903
C           4.14741         1.05723        -0.67976
C           5.34775         1.39570        -1.33846
C           6.44292         0.56829        -1.17967
C           6.35124        -0.57498        -0.37504
C           5.15916        -0.89167         0.28020
H           3.09979        -0.28429         0.65162
H           5.40570         2.28069        -1.95760
H           7.37515         0.79928        -1.67540
H           5.10896        -1.77230         0.90522
N           3.04727         1.86049        -0.84377
N           2.08647         2.44875        -0.95235
S           0.08635         0.23205         0.79900
O           0.19402         1.35827        -0.39088
O          -0.79037        -1.03361         0.38753
O           1.47598        -0.03774         1.52790
C          -0.99284         1.19124         2.08008
F          -2.17578         1.46304         1.43698
F          -0.36783         2.34132         2.41102
F          -1.21626         0.41931         3.16202
H          -2.65359        -0.72248         0.04719
C          -3.62691        -0.40019        -0.32016
C          -3.72533         0.78560        -1.07596
C          -4.78388        -1.12293        -0.08242
C          -4.95975         1.23878        -1.58648
C          -6.01350        -0.67956        -0.57528
H          -4.73588        -2.03788         0.49145
C          -6.09761         0.49919        -1.32663
H          -5.01209         2.14945        -2.16767
H          -7.05652         0.82680        -1.70247
N          -2.59536         1.51383        -1.33705
N          -1.62585         2.07343        -1.51109
Br         -7.59174        -1.68115        -0.22289
Br          7.87045        -1.70262        -0.17453


nprocshared=7
