%chk=x2-2-HOOC-Ph-N2-OTf-v1_RB3LYP-aug-cc-pVDZ-Opt.chk
%mem=500MW
%nproc=7
#p opt=(maxcycles=777) freq rb3lyp/aug-cc-pVDZ pop=(Bonding,AllOrbitals,mk,no,nboread)

x2-2-HOOC-Ph-N2-OTf-v1_RB3LYP-aug-cc-pVDZ

1 1
C          -3.81390        -0.44390         1.41690
C          -4.09930         0.20470         0.20850
C          -5.29480         0.92190        -0.03510
C          -6.22030         0.97300         1.00140
C          -5.96180         0.33350         2.22160
C          -4.77310        -0.36680         2.42620
H          -2.87660        -0.98890         1.52580
H          -7.14510         1.51560         0.84780
H          -6.70090         0.38610         3.01430
H          -4.58230        -0.86170         3.37210
N          -3.13420         0.10010        -0.78830
N          -2.28770        -0.04520        -1.49610
S           0.03530        -1.35260         0.49870
O          -0.10590         0.01100        -0.09510
O           1.17740        -1.46900         1.43800
O          -1.24340        -1.94810         0.94620
C           0.53630        -2.40870        -0.94810
F           1.69950        -1.95350        -1.45600
F          -0.39490        -2.35280        -1.90980
F           0.70540        -3.67820        -0.57850
H           3.16830        -1.50350         0.88290
C           4.02370        -0.93410         0.52940
C           3.95170         0.46470         0.50090
C           5.20660        -1.52350         0.08610
C           5.00440         1.29540         0.05110
C           6.26420        -0.73440        -0.36640
H           5.29260        -2.60450         0.09600
C           6.16370         0.66320        -0.38480
H           7.17950        -1.20470        -0.71030
H           6.98800         1.27110        -0.73760
N           2.76510         1.02800         0.96080
N           1.76870         1.33540         1.34620
C           4.83960         2.77970         0.06050
O           3.82740         3.32350         0.45240
O           5.91800         3.41970        -0.40290
H           5.73860         4.37560        -0.36510
C          -5.51620         1.58420        -1.35580
O          -4.69770         1.55160        -2.25150
O          -6.69980         2.20250        -1.42800
H          -6.77300         2.60550        -2.31100

$nbo bndidx $end

nprocshared=7
