%chk=x2-2-NO2-Ph-N2-OTf-v1_RB3LYP-aug-cc-pVDZ-Opt.chk
%mem=500MW
%nproc=7
#p opt=(maxcycles=777) freq rb3lyp/aug-cc-pVDZ pop=(Bonding,AllOrbitals,mk,no,nboread)

x2-2-NO2-Ph-N2-OTf-v1_RB3LYP-aug-cc-pVDZ

1 1
C          -3.81970        -0.50070         1.33550
C          -4.06560         0.18680         0.13930
C          -5.24290         0.94060        -0.05980
C          -6.18070         1.00550         0.95240
C          -5.94930         0.32110         2.15440
C          -4.78400        -0.42100         2.34170
H          -2.89860        -1.07540         1.43830
H          -7.07860         1.58930         0.78860
H          -6.69170         0.37530         2.94360
H          -4.61310        -0.94860         3.27360
N          -3.10020         0.07050        -0.85300
N          -2.23670        -0.11060        -1.53220
S           0.04440        -1.37690         0.48650
O          -0.09780        -0.01470        -0.11530
O           1.15930        -1.46890         1.46080
O          -1.24050        -1.98420         0.89820
C           0.60410        -2.43050        -0.94070
F           1.77830        -1.96030        -1.40850
F          -0.29550        -2.38500        -1.93060
F           0.77550        -3.69530        -0.56080
H           3.16730        -1.44800         0.97320
C           4.00100        -0.85970         0.59790
C           3.87500         0.53510         0.54150
C           5.19670        -1.42370         0.15150
C           4.91100         1.35800         0.05180
C           6.22550        -0.61790        -0.33520
H           5.31390        -2.50110         0.18660
C           6.08440         0.77630        -0.38770
H           7.15010        -1.06800        -0.68070
H           6.87170         1.41840        -0.76420
N           2.67970         1.06840         1.00720
N           1.66940         1.30960         1.40500
N           4.75820         2.82300         0.00150
O           5.68860         3.47230        -0.44450
O           3.68980         3.27060         0.42120
N          -5.48310         1.66240        -1.32260
O          -6.52960         2.27880        -1.42910
O          -4.59440         1.58010        -2.17150

$nbo bndidx $end

nprocshared=7
