%chk=x2-2-HOOC-4-Br-Ph-N2-OTf-v2_RB3LYP-aug-cc-pVDZ-Opt.chk
%mem=500MW
%nproc=7
#p opt=(maxcycles=777) freq rb3lyp/aug-cc-pVDZ pop=(Bonding,AllOrbitals,mk,no,nboread)

x2-2-HOOC-4-Br-Ph-N2-OTf-v2_RB3LYP-aug-cc-pVDZ

1 1
C           3.59610        -0.25160        -0.75420
C           3.82200        -0.16490         0.63120
C           4.97780         0.44410         1.18880
C           5.90000         0.97430         0.29780
C           5.68870         0.89860        -1.08680
C           4.54550         0.28690        -1.61130
H           2.69640        -0.75000        -1.11190
H           6.78760         1.44610         0.70270
H           4.39780         0.22880        -2.68310
N           2.84840        -0.71250         1.44300
N           2.03510        -1.15110         2.06560
S          -0.16140        -1.86690        -0.27990
O          -0.25970        -0.84480         0.80780
O          -1.26210        -1.78380        -1.26540
O           1.20750        -2.02420        -0.82290
C          -0.47000        -3.47380         0.60470
F          -1.71140        -3.45970         1.13490
F           0.41150        -3.63520         1.60120
F          -0.37820        -4.50680        -0.23010
H          -2.27380        -0.23510         0.48420
C          -3.23170         0.23830         0.27370
C          -4.27460        -0.46120        -0.35390
C          -3.45670         1.56800         0.61040
C          -5.52820         0.12380        -0.65440
C          -4.68460         2.16960         0.32030
H          -2.67100         2.13410         1.09610
C          -5.71560         1.45380        -0.30900
H          -6.66180         1.93190        -0.52770
N          -4.03130        -1.78570        -0.67410
N          -3.68540        -2.82290        -0.87710
C          -6.59210        -0.69100        -1.32040
O          -6.43230        -1.85890        -1.60580
O          -7.70580         0.00960        -1.55100
H          -8.34960        -0.57980        -1.98220
C           5.30260         0.57270         2.65110
O           6.30070         1.11610         3.05470
O           4.36450         0.01700         3.44190
H           4.64980         0.13330         4.36560
Br         -4.97160         3.97170         0.77760
Br          6.97050         1.63140        -2.24970

$nbo bndidx $end

nprocshared=7
