%chk=x2-4-HOOC-Ph-N2-OTf-v1_RB3LYP-aug-cc-pVDZ-Opt.chk
%mem=500MW
%nproc=7
#p opt=(maxcycles=777) freq rb3lyp/aug-cc-pVDZ pop=(Bonding,AllOrbitals,mk,no,nboread)

x2-4-HOOC-Ph-N2-OTf-v1_RB3LYP-aug-cc-pVDZ

1 1
C          -4.16360        -0.43110        -0.26260
C          -4.35820         0.85460         0.26760
C          -5.59780         1.34260         0.72770
C          -6.68220         0.48660         0.65200
C          -6.52530        -0.80780         0.12890
C          -5.27840        -1.25930        -0.32490
H          -3.17700        -0.72440        -0.60890
H          -5.68880         2.34690         1.12560
H          -7.66420         0.79710         0.99040
H          -5.18220        -2.26010        -0.72790
N          -3.27640         1.71560         0.35450
N          -2.43470         2.43830         0.45980
S          -0.08080         0.27550        -0.33750
O          -0.29540         1.05100         0.92160
O           0.84270        -0.87020        -0.17240
O          -1.32620         0.01880        -1.09390
C           0.87210         1.45640        -1.41040
F           2.04600         1.74720        -0.80380
F           0.19240         2.59340        -1.58350
F           1.13880         0.91650        -2.59950
H           2.88190        -1.00600        -0.42430
C           3.82580        -0.79810         0.06880
C           3.82920        -0.17660         1.32740
C           5.06320        -1.11890        -0.47700
C           4.99750         0.13270         2.05340
C           6.24460        -0.82120         0.21590
H           5.11440        -1.60110        -1.44550
C           6.20970        -0.19810         1.47440
H           4.93990         0.61280         3.02350
H           7.14600         0.01490         1.97770
N           2.62480         0.16040         1.92520
N           1.70880         0.46710         2.48170
C           7.60190        -1.14900        -0.34330
O           8.63230        -0.90050         0.23980
O           7.52850        -1.74040        -1.54710
H           8.43810        -1.92040        -1.84220
C          -7.75310        -1.67550         0.08030
O          -8.83730        -1.30580         0.46920
O          -7.50000        -2.88870        -0.43790
H          -8.33520        -3.38810        -0.43820

$nbo bndidx $end

nprocshared=7
