%chk=x2-4-CH3O-Ph-N2-OTf-v1_RB3LYP-aug-cc-pVDZ-Opt.chk
%mem=500MW
%nproc=7
#p opt=(maxcycles=777) freq rb3lyp/aug-cc-pVDZ pop=(Bonding,AllOrbitals,mk,no,nboread)

x2-4-CH3O-Ph-N2-OTf-v1_RB3LYP-aug-cc-pVDZ

1 1
 C        -4.212729291158      0.476082137620     -0.019274661720
 C        -4.419969477058     -0.916097372803     -0.088848269020
 C        -5.691016394398     -1.495385622085     -0.331348835382
 C        -6.761794992060     -0.651095058674     -0.510946023174
 C        -6.583753049958      0.756755995042     -0.448496885185
 C        -5.304783083477      1.307655202396     -0.201403355671
 H        -3.210977012366      0.854214221592      0.190198297908
 H        -5.810080317422     -2.576528460537     -0.374643983528
 H        -7.759334702782     -1.042510340124     -0.700952090545
 H        -5.158796520445      2.382682516968     -0.145416142230
 N        -3.354048060598     -1.763224097371      0.087194931730
 N        -2.515412957531     -2.489629942948      0.213248831426
 S        -0.070819503790     -0.042617359098      0.498400505082
 O        -0.201867794210     -1.207937511311     -0.449248223065
 O         0.943992060923      0.979497819073      0.071757042388
 O        -1.380629822448      0.499320782620      0.990456289946
 C         0.699746761963     -0.811836274851      2.048978963742
 F         1.903235219132     -1.347687183221      1.740552751103
 F        -0.086324384307     -1.786532568593      2.534123092775
 F         0.882277126322      0.113625097925      3.001230708426
 H         2.986161392169      0.958958798026      0.178466757819
 C         3.930333359481      0.688399382045     -0.295330521656
 C         3.910490766267     -0.129979581810     -1.442454232507
 C         5.157719125185      1.119615643312      0.177719620050
 C         5.087435544322     -0.524170379826     -2.128243428895
 C         6.347816870482      0.737674389943     -0.484256536196
 H         5.185660874139      1.751313123949      1.060994065498
 C         6.296343882902     -0.086464808379     -1.640259862872
 H         5.030300216887     -1.156473320076     -3.012445725605
 H         7.230384126026     -0.361284867295     -2.126509586856
 N         2.707340621583     -0.571793716953     -1.933976089467
 N         1.758453188510     -0.962793320658     -2.374129522125
 O         7.570914029960      1.099858370401     -0.103149925591
 O        -7.689927609394      1.474521885450     -0.634535663697
 C         7.745491398959      1.935844508775      1.059337299433
 H         8.824688851412      2.078369261885      1.146959551486
 H         7.249407201327      2.903975247471      0.912161338770
 H         7.358952536360      1.431625599649      1.954522857128
 C        -7.630693091538      2.914662440225     -0.586425173477
 H        -6.968238025513      3.297087085527     -1.373883338776
 H        -8.655338690802      3.247223936597     -0.765928458697
 H        -7.294510373058      3.250978340120      0.403003631225

$nbo bndidx $end

nprocshared=7
