%chk=x2-4-NO2-Ph-N2-OTs-v1_RB3LYP-aug-cc-pVDZ-Opt.chk
%mem=500MW
%nproc=7
#p opt=(maxcycles=777) freq rb3lyp/aug-cc-pVDZ pop=(Bonding,AllOrbitals,mk,no,nboread)

x2-4-NO2-Ph-N2-OTs-v1_RB3LYP-aug-cc-pVDZ

1 1
C          -3.67380        -1.27190        -0.22080
C          -4.00160        -0.65420         0.99410
C          -5.28540        -0.68340         1.57340
C          -6.28250        -1.36620         0.89440
C          -5.96270        -1.98710        -0.31390
C          -4.69110        -1.95450        -0.87960
H          -2.66680        -1.17770        -0.61170
H          -5.48300        -0.18790         2.51700
H          -7.29270        -1.42780         1.27920
H          -4.51300        -2.45450        -1.82330
N          -3.02230         0.02150         1.71870
N          -2.36180         0.56000         2.44050
S          -0.00470         0.79680         0.17020
O          -0.02710         0.75480         1.67940
O           1.24050         0.17400        -0.36130
O          -1.25740         0.22920        -0.40240
H           2.62170        -1.26050        -0.61750
C           3.62360        -1.35730        -0.21550
C           3.92890        -0.77770         1.02360
C           4.65660        -2.00610        -0.88400
C           5.20570        -0.81320         1.61780
C           5.92170        -2.04320        -0.30430
H           4.49560        -2.47550        -1.84640
C           6.21930        -1.46030         0.92830
H           5.38600        -0.34860         2.58040
H           7.22540        -1.52340         1.32360
N           2.93380        -0.13900         1.76110
N           2.26880         0.36260         2.50500
N           7.01690        -2.73850        -1.03480
O           6.72810        -3.24340        -2.11240
O           8.11770        -2.74940        -0.49710
N          -7.04070        -2.72050        -1.03300
O          -6.73230        -3.25980        -2.08820
O          -8.14810        -2.72520        -0.50890
C           0.03580         2.52210        -0.29750
C          -0.00780         2.85700        -1.65540
C           0.11900         3.51490         0.67680
C           0.03350         4.19560        -2.02710
H          -0.07520         2.07930        -2.40900
C           0.15900         4.85450         0.28550
H           0.14890         3.23880         1.72480
C           0.11700         5.21730        -1.06550
H           0.00010         4.45660        -3.08140
H           0.22320         5.62900         1.04460
C           0.15110         6.66490        -1.48950
H          -0.78970         6.95650        -1.97010
H           0.31070         7.32990        -0.63740
H           0.95100         6.84650        -2.21510

$nbo bndidx $end

nprocshared=7
