%chk=x2-4-Br-Ph-N2-OTf-v2_RB3LYP-aug-cc-pVDZ-Opt.chk
%mem=500MW
%nproc=7
#p opt=(maxcycles=777) freq rb3lyp/aug-cc-pVDZ pop=(Bonding,AllOrbitals,mk,no,nboread)

x2-4-Br-Ph-N2-OTf-v2_RB3LYP-aug-cc-pVDZ

1 1
C          -3.70330        -0.21240        -0.32170
C          -3.61260        -0.30690         1.07880
C          -4.65690        -0.79360         1.89360
C          -5.82450        -1.20010         1.27540
C          -5.93510        -1.11610        -0.12310
C          -4.88620        -0.62650        -0.91380
H          -2.86920         0.19410        -0.88470
H          -4.54300        -0.84670         2.97050
H          -6.65020        -1.58040         1.86430
H          -5.00070        -0.56680        -1.98940
N          -2.45500         0.08120         1.71990
N          -1.55450         0.35520         2.32140
S           0.14450         1.52910        -0.24460
O           0.56060         0.58810         0.83880
O           1.10760         1.59810        -1.36560
O          -1.28770         1.42170        -0.60400
C           0.27060         3.20170         0.55840
F           1.55990         3.45240         0.86920
F          -0.45030         3.23100         1.68760
F          -0.16030         4.16110        -0.25900
H           2.54820         0.18740         0.19620
C           3.57510        -0.03740        -0.08700
C           4.35820         0.88470        -0.80880
C           4.17130        -1.24400         0.24470
C           5.69150         0.64210        -1.20080
C           5.49410        -1.50910        -0.13700
H           3.60840        -1.98400         0.80070
C           6.25460        -0.57230        -0.85780
H           6.25220         1.38640        -1.75500
H           7.27470        -0.80120        -1.14120
N           3.81360         2.10100        -1.14530
N           3.37150         3.08770        -1.41250
Br         -7.53090        -1.67220        -0.94740
Br          6.27570        -3.15500         0.32540

$nbo bndidx $end

nprocshared=7
