%chk=x2-4-NO2-Ph-N2-OTf-v1_RB3LYP-aug-cc-pVDZ-Opt.chk
%mem=500MW
%nproc=7
#p opt=(maxcycles=777) freq rb3lyp/aug-cc-pVDZ pop=(Bonding,AllOrbitals,mk,no,nboread)

x2-4-NO2-Ph-N2-OTf-v1_RB3LYP-aug-cc-pVDZ

1 1
C          -4.16500         0.53470         0.03820
C          -4.37570        -0.83790        -0.16760
C          -5.63370        -1.42020        -0.41830
C          -6.73070        -0.57450        -0.46830
C          -6.53110         0.79240        -0.26720
C          -5.28400         1.35870        -0.01610
H          -3.16390         0.90070         0.24470
H          -5.73590        -2.48890        -0.56790
H          -7.72900        -0.94890        -0.65730
H          -5.20190         2.42800         0.13520
N          -3.28950        -1.70370        -0.13180
N          -2.46810        -2.45670        -0.13470
S          -0.06680        -0.22400         0.28270
O          -0.23160        -1.34530        -0.69220
O           0.87550         0.81950        -0.18160
O          -1.34520         0.24640         0.85960
C           0.82470        -1.01330         1.70990
F           2.02450        -1.46230         1.27360
F           0.13190        -2.04810         2.18840
F           1.03640        -0.13150         2.68520
H           2.87600         1.08670         0.10790
C           3.84390         0.75590        -0.25520
C           3.91460        -0.23450        -1.24700
C           5.04970         1.26830         0.21050
C           5.11620        -0.73080        -1.78980
C           6.24260         0.78080        -0.31710
H           5.07610         2.03580         0.97410
C           6.30270        -0.20490        -1.30360
H           5.10940        -1.49680        -2.55670
H           7.26510        -0.53880        -1.67100
N           2.74050        -0.77790        -1.75470
N           1.85920        -1.27300        -2.22360
N           7.52540         1.33890         0.19530
O           7.44420         2.20170         1.05990
O           8.55450         0.88730        -0.29190
N          -7.71900         1.69000        -0.32370
O          -7.51540         2.88420        -0.14820
O          -8.80020         1.15750        -0.54210

$nbo bndidx $end

nprocshared=7
