%chk=x2-Ph-N2-OTf-v2_RB3LYP-aug-cc-pVDZ-Opt.chk
%mem=500MW
%nproc=7
#p opt=(maxcycles=777) freq rb3lyp/aug-cc-pVDZ pop=(Bonding,AllOrbitals,mk,no,nboread)

x2-Ph-N2-OTf-v2_RB3LYP-aug-cc-pVDZ

1 1
C          -3.87440        -0.80070        -1.01430
C          -4.03350        -0.76060         0.38090
C          -5.24300        -1.04960         1.04530
C          -6.33250        -1.39550         0.26190
C          -6.20620        -1.44700        -1.13360
C          -4.99200        -1.15240        -1.76240
H          -2.91610        -0.53970        -1.45030
H          -5.30730        -1.00090         2.12650
H          -7.28080        -1.62430         0.73520
H          -7.06810        -1.71760        -1.73530
H          -4.91400        -1.19140        -2.84320
N          -2.95470        -0.42980         1.18380
N          -2.14540        -0.19360         1.91450
S           0.05910         0.63180        -0.36730
O           0.19840        -0.26150         0.82270
O           1.21270         0.56960        -1.29080
O          -1.28770         0.59240        -0.98070
C           0.15620         2.34120         0.35850
F           1.37110         2.52600         0.91570
F          -0.77340         2.49320         1.31300
F          -0.02550         3.27150        -0.57730
H           2.20750        -0.94710         0.56300
C           3.21570        -1.31260         0.37710
C           4.19010        -0.49620        -0.22580
C           3.61160        -2.60320         0.70820
C           5.50960        -0.90530        -0.50470
C           4.91240        -3.04410         0.44210
H           2.89460        -3.26900         1.17530
C           5.85710        -2.20180        -0.16160
H           6.21450        -0.22650        -0.97120
H           5.19790        -4.05700         0.70770
H           6.86120        -2.55830        -0.36180
N           3.85350         0.80000        -0.55810
N           3.58950         1.84780        -0.82190

$nbo bndidx $end

nprocshared=7
