%chk=2-HOOC-4-Br-C6H2-IRC.chk
%mem=500MW
%nproc=7
# rb3lyp/aug-cc-pVDZ irc=(calcfc,maxcycle=1000,maxpoints=10000,stepsize=1) scf=(xqc,maxcycle=1000) nosymm

2-HOOC-4-Br-C6H2

0 1
C           0.81575        -1.67096         0.00001
C          -0.55952        -2.01097         0.00001
C          -1.35573        -0.94456         0.00000
C          -1.11003         0.43862         0.00000
C           0.25888         0.72816         0.00000
C           1.19155        -0.32379         0.00000
H           1.59222        -2.43861         0.00001
H           0.57699         1.76762        -0.00000
N          -2.92815        -1.39046        -0.00001
N          -3.81680        -2.05589        -0.00001
Br          3.05833         0.13760        -0.00000
C          -2.07421         1.57179         0.00000
O          -1.76114         2.74119        -0.00001
O          -3.37385         1.16827         0.00001
H          -3.91638         1.97406         0.00001


nprocshared=7
