%chk=3-NO2-C6H3-N2-v2-IRC.chk
%mem=500MW
%nproc=7
# rb3lyp/aug-cc-pVDZ irc=(calcfc,maxcycle=1000,maxpoints=10000,stepsize=1) scf=(xqc,maxcycle=1000) nosymm

3-NO2-C6H3-N2-v2

0 1
C           0.37994         2.17312         0.00007
C           1.58742         1.47482         0.00004
C           1.41669         0.09111        -0.00000
C           0.34320        -0.71210        -0.00002
C          -0.81944         0.06388         0.00000
C          -0.83610         1.46333         0.00004
H           0.37780         3.26220         0.00011
N           2.78838        -0.72908        -0.00004
N           3.52175        -1.56416        -0.00007
H          -1.78496         1.99615         0.00005
N          -2.15636        -0.62911        -0.00001
O          -3.16048         0.08680        -0.00023
O          -2.17170        -1.84903         0.00021
H           2.55794         1.97097         0.00006


nprocshared=7
