%chk=s-C6H4N2_UB3LYP-aug-cc-pVDZ-Opt.chk
%mem=500MW
%nproc=7
#p opt=(maxcycles=777) freq ub3lyp/aug-cc-pVDZ pop=(Bonding,AllOrbitals,mk,no,nboread)

s-C6H4N2_UB3LYP-aug-cc-pVDZ

0 1
C          -1.20398        -0.39192        -0.05918
N          -2.59183        -0.53088        -0.10485
N          -3.70799        -0.57526        -0.14082
C          -0.79464         0.95502        -0.04478
C           0.63093         1.01066         0.00356
C           1.45263        -0.11483         0.03177
C           0.92017        -1.42990         0.01240
C          -0.44767        -1.59805        -0.03455
H           1.11397         1.99235         0.02030
H           2.53880         0.00786         0.06990
H           1.58214        -2.29499         0.03480
H          -0.91727        -2.58232        -0.05176

$nbo bndidx $end

nprocshared=7
