%chk=x2-4-NO2-Ph-N2-OTf-v2.chk
%nprocs=7
%mem=200MW
# opt=(maxcycles=1000,cartesian) freq rb3lyp/aug-cc-pvdz

x2-4-NO2-Ph-N2-OTf-v2-RB3LYP-aug-cc-pVDZ

1 1
C          -3.88210        -0.56990        -0.44900
C          -3.95430        -0.28450         0.92300
C          -5.11240        -0.45280         1.70780
C          -6.24920        -0.93360         1.07760
C          -6.18550        -1.22260        -0.28660
C          -5.03730        -1.05150        -1.05540
H          -2.95790        -0.39080        -0.98780
H          -5.11050        -0.21450         2.76530
H          -7.17580        -1.08770         1.61630
H          -5.05920        -1.29100        -2.11130
N          -2.82750         0.18610         1.58860
N          -1.99060         0.54660         2.23150
S           0.04850         1.00200        -0.27300
O           0.28750         0.39610         1.07320
O           1.15690         0.77310        -1.22490
O          -1.32440         0.77970        -0.77980
C           0.10530         2.83170         0.05470
F           1.34200         3.17070         0.47480
F          -0.77260         3.15570         1.01350
F          -0.17350         3.52390        -1.04690
H           2.32060        -0.17310         0.86680
C           3.31570        -0.56400         0.66000
C           4.19640         0.09930        -0.21550
C           3.77600        -1.74600         1.23160
C           5.48560        -0.35330        -0.53940
C           5.04990        -2.23950         0.93730
H           3.12980        -2.28930         1.91140
C           5.87730        -1.53580         0.05970
H           6.14910         0.17210        -1.21590
N           3.79130         1.28950        -0.79460
N           3.47750         2.25060        -1.25540
N          -7.41410        -1.73980        -0.95180
O          -7.32950        -1.99000        -2.14710
O          -8.40650        -1.87280        -0.24620
H           6.84980        -1.92610        -0.15690
N           5.54940        -3.48850         1.53020
O           6.65220        -3.85780         1.23730
O           4.83410        -4.08830         2.28320


nprocshared=7
