%chk=4-CH3O-C6H3-TS.chk
%mem=500MW
%nproc=7
# rb3lyp/aug-cc-pVDZ opt=(ts,noeigen,calcfc) freq=noraman

4-CH3O-C6H3

0 1
C          -1.96824        -0.23244         0.19133
C          -0.64143        -0.31512        -0.22304
C          -0.01094         0.92204        -0.29962
C          -0.40699         2.18154        -0.05953
C          -1.75202         2.22096         0.35634
C          -2.51953         1.04374         0.48056
H          -2.55592        -1.14119         0.28576
H          -0.16009        -1.26480        -0.46005
H          -2.25111         3.16348         0.59810
N           1.53429         0.82461        -0.78234
N           2.57376         1.09654        -1.07533
O          -3.80745         1.21591         0.89146
C          -4.64693         0.07493         1.04111
H          -5.61530         0.46065         1.37414
H          -4.24896        -0.61700         1.79918
H          -4.77414        -0.45545         0.08491


nprocshared=7
