%chk=4-NO2-C6H3-TS.chk
%mem=500MW
%nproc=7
# rb3lyp/aug-cc-pVDZ opt=(ts,noeigen,calcfc) freq=noraman

4-NO2-C6H3

0 1
C          -1.99105        -0.18488        -0.64742
C          -0.57238        -0.18988        -0.75926
C          -0.05103         0.90090        -0.17989
C          -0.58304         2.00671         0.48884
C          -1.96809         1.96985         0.57429
C          -2.63889         0.86920         0.00064
H          -2.59679        -0.99188        -1.05891
H           0.01199         2.81960         0.90478
H          -2.53371         2.75663         1.06469
N          -4.12309         0.85085         0.10423
O          -4.71944        -0.09562        -0.39749
O          -4.66661         1.78869         0.68440
N           1.54689         0.92881        -0.28714
N           2.60477         0.67441        -0.51236


nprocshared=7
