%chk=C6H4-TS.chk
%mem=500MW
%nproc=7
# rb3lyp/aug-cc-pVDZ opt=(ts,noeigen,calcfc) freq=noraman

C6H4

0 1
C          -1.89367         0.10038        -1.06891
C          -0.47746         0.02915        -0.94727
C          -0.05311         0.85450         0.01997
C          -0.68405         1.73574         0.89969
C          -2.06582         1.76081         0.73216
C          -2.66077         0.94073        -0.25339
H          -2.40949        -0.51179        -1.81471
N           1.53848         0.80861         0.19418
N           2.61387         0.55329         0.06518
H          -3.74646         0.96995        -0.37455
H          -2.67977         2.40854         1.35755
H          -0.16085         2.34187         1.63991


nprocshared=7
