%chk=Ph-N2-OTf-N2-Ph.chk
%nprocs=7
%mem=200MW
# opt freq rb3lyp/6-31G(d,p)

1a-R5-P3+-RB3LYP-6-31G_dp

1 1
C          -1.93230         0.08680        -1.08920
C          -0.54910         0.01550        -0.97270
C           0.04280         0.83030         0.00700
C          -0.64710         1.70110         0.86750
C          -2.02890         1.75070         0.72590
C          -2.63870         0.94750        -0.24310
H          -2.45540        -0.51400        -1.82260
H          -3.70310         0.99400        -0.34250
H          -2.61650         2.39290         1.34810
H          -0.13470         2.29570         1.59470
N           0.25370        -0.86760        -1.83090
N          -0.30190        -1.55280        -2.69090
C           0.45020        -2.45310        -3.57670
C           0.92940        -1.98680        -4.80120
C           0.68490        -3.77340        -3.19310
C           1.64250        -2.84090        -5.64210
H           0.74360        -0.94600        -5.10370
C           1.39900        -4.62770        -4.03370
H           0.30740        -4.14110        -2.22790
C           1.87770        -4.16170        -5.25810
H           2.01970        -2.47360        -6.60760
H           1.58430        -5.66850        -3.73080
H           2.44010        -4.83490        -5.92130
C           1.57470         0.76340         0.15000
C           2.15430        -0.15900         1.02160
C           2.38270         1.62490        -0.59200
C           3.54160        -0.21940         1.15170
H           1.51690        -0.83750         1.60700
C           3.77050         1.56390        -0.46270
C           4.35000         0.64210         0.40900
H           3.99850        -0.94600         1.83920
H           4.40740         2.24300        -1.04810
H           5.44390         0.59420         0.51170
C           1.74290         2.64330        -1.55390
C           1.66660         3.98930        -1.19480
C           1.23990         2.22010        -2.78410
C           1.08670         4.91170        -2.06540
C           0.66070         3.14290        -3.65560
H           1.30010         1.15930        -3.06730
C           0.58390         4.48850        -3.29640
H           1.02600         5.97260        -1.78220
H           0.26460         2.80900        -4.62560
H           0.12680         5.21600        -3.98280
C           2.22280         4.45660         0.16310
C           3.59600         4.63850         0.32910
C           1.35370         4.69800         1.22700
C           4.10010         5.06110         1.55890
H           4.28100         4.44730        -0.50970
C           1.85770         5.12170         2.45710
C           3.23060         5.30320         2.62320
H           5.18250         5.20400         1.69000
H           1.17210         5.31240         3.29560
H           3.62820         5.63650         3.59280


nprocshared=7
