%chk=Ph-N2-OTf-N2-Ph.chk
%nprocs=7
%mem=200MW
# opt freq rb3lyp/6-31G(d,p)

1a-R6-G+-RB3LYP-6-31G_dp

1 1
C          -1.93230         0.08680        -1.08920
C          -0.54910         0.01550        -0.97270
C           0.04280         0.83030         0.00700
C          -0.64710         1.70110         0.86750
C          -2.02890         1.75070         0.72590
C          -2.63870         0.94750        -0.24310
H          -2.45540        -0.51400        -1.82260
H          -3.70310         0.99400        -0.34250
H          -2.61650         2.39290         1.34810
H          -0.13470         2.29570         1.59470
N           0.83920        -0.39460        -1.22810
N           1.34910         0.32330        -0.36650
C           2.80010         0.35020        -0.13240
C           3.37300        -0.51970         0.79580
C           3.60400         1.24520        -0.83820
C           4.74960        -0.49400         1.01850
H           2.73880        -1.22470         1.35260
C           4.98120         1.27040        -0.61620
H           3.15260         1.93080        -1.56990
C           5.55400         0.40110         0.31210
H           5.20120        -1.17920         1.75060
H           5.61490         1.97580        -1.17310
H           6.63940         0.42100         0.48780


nprocshared=7
