%chk=Ph-N2-OTf-N2-Ph.chk
%nprocs=7
%mem=200MW
# opt freq rb3lyp/6-31G(d,p)

1g-R5-P2+-RB3LYP-6-31G_dp

1 1
C          -1.93230         0.08680        -1.08920
C          -0.54910         0.01550        -0.97270
C           0.04280         0.83030         0.00700
C          -0.64710         1.70110         0.86750
C          -2.02890         1.75070         0.72590
C          -2.63870         0.94750        -0.24310
H          -2.45540        -0.51400        -1.82260
H          -2.61650         2.39290         1.34810
H          -0.13470         2.29570         1.59470
N           0.25370        -0.86760        -1.83090
N          -0.30190        -1.55280        -2.69090
C           0.45020        -2.45310        -3.57670
C           0.92940        -1.98680        -4.80120
C           0.68490        -3.77340        -3.19310
C           1.64250        -2.84090        -5.64210
H           0.74360        -0.94600        -5.10370
C           1.39900        -4.62770        -4.03370
H           0.30740        -4.14110        -2.22790
C           1.87770        -4.16170        -5.25810
H           2.01970        -2.47360        -6.60760
H           1.58430        -5.66850        -3.73080
C           1.57470         0.76340         0.15000
C           2.15430        -0.15900         1.02160
C           2.38270         1.62490        -0.59200
C           3.54160        -0.21940         1.15170
H           1.51690        -0.83750         1.60700
C           3.77050         1.56390        -0.46270
C           4.35000         0.64210         0.40900
H           4.40740         2.24300        -1.04810
H           5.44390         0.59420         0.51170
C           1.74290         2.64330        -1.55390
C           1.66660         3.98930        -1.19480
C           1.23990         2.22010        -2.78410
C           1.08670         4.91170        -2.06540
C           0.66070         3.14290        -3.65560
H           1.30010         1.15930        -3.06730
C           0.58390         4.48850        -3.29640
H           1.02600         5.97260        -1.78220
H           0.12680         5.21600        -3.98280
C           2.66530        -5.10440        -6.18680
O           3.87820        -5.28100        -6.29230
O           1.85110        -5.83070        -6.99370
H           2.37210        -6.41560        -7.56780
C          -4.17060         1.01440        -0.38620
O          -4.92140         0.41320        -1.15320
O          -4.73200         1.88460         0.49080
H          -5.69650         1.90750         0.37950
C           4.18140        -1.23690         2.11450
O           4.25780        -2.46230         2.03550
O           4.73220        -0.64070         3.20190
H           5.12790        -1.30350         3.79140
C           0.10600         2.67530        -5.01400
O          -0.92640         2.06080        -5.27880
O           0.91700         3.01780        -6.04670
H           0.54460         2.71170        -6.88980


nprocshared=7
