%chk=Ph-N2-OTf-N2-Ph.chk
%nprocs=7
%mem=200MW
# opt freq rb3lyp/6-31G(d,p)

1g-Scheme5-D+-RB3LYP-6-31G_dp

1 1
C          -1.93230         0.08680        -1.08920
C          -0.54910         0.01550        -0.97270
C           0.04280         0.83030         0.00700
C          -0.64710         1.70110         0.86750
C          -2.02890         1.75070         0.72590
C          -2.63870         0.94750        -0.24310
H          -2.45540        -0.51400        -1.82260
N           1.42610         0.76990         0.13610
N           2.55780         0.72140         0.24060
H          -2.61650         2.39290         1.34810
H          -0.13470         2.29570         1.59470
N           0.25370        -0.86760        -1.83090
N          -0.30190        -1.55280        -2.69090
C           0.45020        -2.45310        -3.57670
C           0.92940        -1.98680        -4.80120
C           0.68490        -3.77340        -3.19310
C           1.64250        -2.84090        -5.64210
H           0.74360        -0.94600        -5.10370
C           1.39900        -4.62770        -4.03370
H           0.30740        -4.14110        -2.22790
C           1.87770        -4.16170        -5.25810
H           2.01970        -2.47360        -6.60760
H           1.58430        -5.66850        -3.73080
C           2.66530        -5.10440        -6.18690
O           3.87370        -5.32610        -6.25030
O           1.85710        -5.77040        -7.04980
H           2.37790        -6.35660        -7.62270
C          -4.17060         1.01440        -0.38610
O          -4.92140         0.41320        -1.15310
O          -4.73200         1.88460         0.49080
H          -5.69650         1.90750         0.37960


nprocshared=7
