%chk=Ph-N2-OTf-N2-Ph.chk
%nprocs=7
%mem=200MW
# opt freq rb3lyp/6-31G(d,p)

1g-R5-P1+-RB3LYP-6-31G_dp

1 1
C          -1.93230         0.08680        -1.08920
C          -0.54910         0.01550        -0.97270
C           0.04280         0.83030         0.00700
C          -0.64710         1.70110         0.86750
C          -2.02890         1.75070         0.72590
C          -2.63870         0.94750        -0.24310
H          -2.45540        -0.51400        -1.82260
H          -2.61650         2.39290         1.34810
H          -0.13470         2.29570         1.59470
N           0.25370        -0.86760        -1.83090
N          -0.30190        -1.55280        -2.69090
C           0.45020        -2.45310        -3.57670
C           0.92940        -1.98680        -4.80120
C           0.68490        -3.77340        -3.19310
C           1.64250        -2.84090        -5.64210
H           0.74360        -0.94600        -5.10370
C           1.39900        -4.62770        -4.03370
H           0.30740        -4.14110        -2.22790
C           1.87770        -4.16170        -5.25810
H           2.01970        -2.47360        -6.60760
H           1.58430        -5.66850        -3.73080
C           1.57470         0.76340         0.15000
C           2.15430        -0.15900         1.02160
C           2.38270         1.62490        -0.59200
C           3.54160        -0.21940         1.15170
H           1.51690        -0.83750         1.60700
C           3.77050         1.56390        -0.46270
C           4.35000         0.64210         0.40900
H           4.40740         2.24300        -1.04810
H           5.44390         0.59420         0.51170
C           2.66530        -5.10440        -6.18680
O           3.87370        -5.32630        -6.25010
O           1.85710        -5.77020        -7.05000
H           2.37800        -6.35650        -7.62280
C          -4.17060         1.01440        -0.38620
O          -4.92140         0.41320        -1.15320
O          -4.73200         1.88460         0.49080
H          -5.69650         1.90750         0.37950
C           4.18140        -1.23690         2.11450
O           4.25890        -2.46220         2.03490
O           4.73080        -0.64090         3.20270
H           5.12650        -1.30360         3.79220


nprocshared=7
