%chk=Ph-N2-OTf-N2-Ph.chk
%nprocs=7
%mem=200MW
# opt freq rb3lyp/6-31G(d,p)

1i-R5-D+-RB3LYP-6-31G_dp

1 1
C          -1.93230         0.08680        -1.08920
C          -0.54910         0.01550        -0.97270
C           0.04280         0.83030         0.00700
C          -0.64710         1.70110         0.86750
C          -2.02890         1.75070         0.72590
C          -2.63870         0.94750        -0.24310
H          -2.45540        -0.51400        -1.82260
N           1.42610         0.76990         0.13610
N           2.55780         0.72140         0.24060
H          -2.61650         2.39290         1.34810
N           0.25370        -0.86760        -1.83090
N          -0.30190        -1.55280        -2.69090
C           0.45020        -2.45310        -3.57670
C           0.92940        -1.98680        -4.80120
C           0.68490        -3.77340        -3.19310
C           1.64250        -2.84090        -5.64210
C           1.39900        -4.62770        -4.03370
H           0.30740        -4.14110        -2.22790
C           1.87770        -4.16170        -5.25810
H           2.01970        -2.47360        -6.60760
H           1.58430        -5.66850        -3.73080
C           0.09040         2.55690         1.91410
O          -0.35200         3.35960         2.73480
O           1.43260         2.35940         1.88730
H           1.87260         2.90990         2.55560
C           0.66920        -0.52930        -5.22480
O           1.28770         0.49800        -4.94950
O          -0.42110        -0.41230        -6.02420
H          -0.56230         0.51490        -6.27620
Br         -4.53860         1.03050        -0.42050
Br          2.85450        -5.33090        -6.41000


nprocshared=7
