%chk=HOTf.chk
%nprocs=7
%mem=200MW
# opt freq rb3lyp/6-31G(d,p)

HOTf-RB3LYP-6-31G_dp

0 1
  S   5.09037551793818      0.63505704199217      0.06515658281299
  C   6.80079590019621      1.05885192416855      0.58095830774516
  O   4.19332385708491      1.50653624598747      0.80732053488882
  O   4.99559120518586     -0.80757755498468      0.03718651149888
  F   7.68480974112456      0.37931232570791     -0.15096357225539
  F   6.99909045254202      2.37426141588363      0.41631862040261
  F   6.94610534060736      0.74420273090788      1.87140190733266
  O   5.17395716923043      1.15389859632651     -1.47219740018645
  H   4.77775081609047      2.04195727401056     -1.50928149223929


nprocshared=7
