! B3LYP/G 6-31G(d,p) TightSCF TightOpt NumFreq Grid7
%geom MaxIter 2000 TolE 1e-8 TolRMSG 5e-7 TolMaxG 1e-6 Convergence tight end
%scf MaxIter 2000 end
%freq Temp 298.15, 323.15, 373.15, 423.15, 473.15, 523.15, 573.15, 623.15 end
* xyz 1 1
  C   -3.81619675061860     -0.72246164241633     -0.16769685165243
  C   -4.48382076069440      0.04065761943782      0.80443687076830
  C   -5.78386614891603     -0.22198332021075      1.27251547599194
  C   -6.44343728910791     -1.32025765407579      0.74131232167838
  C   -5.79007719379262     -2.08900643354989     -0.22407406586037
  C   -4.50538405989135     -1.81396007845168     -0.68696607413399
  H   -2.81216002960794     -0.43932058607053     -0.48956486332721
  H   -6.24641563609927      0.40892739990444      2.02301427231282
  H   -7.44453672510416     -1.58958600542854      1.05414728638892
  H   -4.06158237255622     -2.45058720247284     -1.44238510512684
  N   -3.81446161840853      1.13431143662752      1.33608464222933
  N   -3.18398591610844      1.96300679872108      1.73972117054051
  S   -0.30683679124818      1.11235093354192      0.25901999859382
  O   -0.94917977807072      1.12497019152548      1.60736319687668
  O   0.96966465017758      0.28595278493204      0.31571893492678
  O   -1.20966601570593      0.68229121761834     -0.84010244664597
  H   2.57608202211699     -0.71409471196745      1.42715772221723
  C   3.47847555817773     -1.23323383676076      1.12036469873732
  C   3.78027809502272     -1.35606778472169     -0.24870387901227
  C   4.37545919934168     -1.79758698659720      2.01982619621223
  C   4.91888255089331     -2.00643769580932     -0.74687878187413
  C   5.50880009302373     -2.44497924404229      1.52941329099593
  H   4.21146979239343     -1.74375236039760      3.08908609431457
  C   5.80087485772640     -2.56213069499588      0.17052706960871
  H   5.09850338181445     -2.06916962082542     -1.81410102536078
  N   2.88940337920675     -0.79455834703081     -1.15934847249826
  N   1.98456270116809     -0.24248655825052     -1.54351133435927
  N   -6.50873213176370     -3.26424705616805     -0.78883002143431
  O   -5.90981959246469     -3.92559891760379     -1.62776318529264
  O   -7.63948496822229     -3.47335747315966     -0.36700504321592
  C   0.19112212984911      2.78935593439537     -0.10495781530663
  C   0.64543299814463      3.61086035477113      0.93175331113235
  C   0.15851762402790      3.25251457125382     -1.42046036330983
  C   1.07012397056614      4.90312707816070      0.63813121922789
  H   0.64780098089525      3.24405314542083      1.95273670321974
  C   0.58849006692636      4.55099963192784     -1.69610057180373
  H   -0.21459530231572      2.60951551638952     -2.21028119371884
  C   1.05115866388762      5.39489177469477     -0.67778365959182
  H   1.41846110264279      5.54498977884250      1.44311839267409
  H   0.55803517429315      4.91586025513877     -2.71908908708575
  C   1.50346414145182      6.80371080826139     -0.97500453869142
  H   2.50244018552232      6.99375296481758     -0.56842251307407
  H   1.53286170378629      6.99836379278800     -2.04982116602452
  H   0.82775616808706      7.53757243425456     -0.52088991724783
  H   6.69988675337490     -3.07845179189127     -0.14180529260537
  N   6.45792558451644     -3.04355142123389      2.50703691992133
  O   6.17519588768165     -2.92640892180738      3.69310378001609
  O   7.44420966398042     -3.60476007748609      2.04565769966924

*
%pal nprocs 42 end
